3397538820184435665501,13,1,2,02,4,1,2,08,11,1,2,013,3,1,2,05,4,1,2,03,4,1,2,04,2,1,2,011,6,1,2,010,13,1,2,03,3,1,2,01,3,1,2,03,13,1,2,05,13,1,2,010,5,1,2,06,15,1,2,02,4,1,2,02,9,1,2,04,1,1,2,02,4,1,2,03,15,1,2,01,2,1,2,06,1,1,2,011,7,1,2,015,15,1,2,013,14,1,2,012,12,1,2,012,8,1,2,015,14,1,2,03,9,1,2,07,9,1,2,04,12,1,2,013,7,1,2,05,15,1,2,07,2,1,2,07,11,1,2,013,12,1,2,014,9,1,2,07,11,1,2,08,6,1,2,01,6,1,2,013,12,1,2,04,2,1,2,02,15,1,2,05,2,1,2,013,15,1,2,010,9,1,2,07,14,1,2,04,9,1,2,06,5,1,2,05,5,1,2,0